job_count = 12 ;
duration = [|18, 10, 4|12, 8, 9|17, 16, 5|6, 16, 7|27, 16, 8|8, 14, 4|28, 6, 3|17, 5, 5|28, 16, 1|10, 15, 1|25, 8, 3|10, 15, 3|] ;
machine_count = 3 ;
cost = [|12, 26, 47|16, 23, 59|17, 36, 52|14, 27, 57|19, 27, 42|10, 37, 37|19, 33, 54|11, 32, 31|13, 37, 52|18, 35, 48|14, 20, 31|19, 27, 31|] ;
deadline = [27, 27, 27, 27, 27, 27, 27, 27, 27, 27, 27, 27] ;
release = [0, 0, 0, 0, 0, 0, 0, 0, 0, 0, 0, 0] ;
resource = [|4, 4, 4|2, 2, 2|6, 6, 6|9, 9, 9|6, 6, 6|7, 7, 7|8, 8, 8|8, 8, 8|4, 4, 4|3, 3, 3|4, 4, 4|6, 6, 6|] ;
capacities = [10, 10, 10] ;
